benchmarks_vrp/CMT11/fixed_c/CMT11_6.vrp
NAME: CMT11_6
TYPE: CVRP
COMMENT: 1042.11 - Cluster Nr.6
DIMENSION: 2
CAPACITY: 200
EDGE_WEIGHT_TYPE: EUC_2D
NODE_COORD_TYPE: TWOD_COORDS
NODE_COORD_SECTION: 
1 5 50
2 10 45
DEPOT_SECTION: 
2
-1
DEMAND_SECTION: 
1 13
2 0
EOF
