benchmarks_vrp/CMT11/fixed_c/CMT11_6.tour
NAME: CMT11_6 solution
TYPE: TOUR
TOUR_SECTION:
1 2 -1
-1
EOF